p cnf 896 3136
-77 -551 0
-85 -549 0
-85 550 0
-85 -551 0
-93 549 0
-93 550 0
-93 -551 0
-101 -549 0
-101 -550 0
-101 551 0
-109 549 0
-109 -550 0
-109 551 0
-117 -549 0
-117 550 0
-117 551 0
-125 549 0
-125 550 0
-125 551 0
-70 -552 0
-70 -553 0
-70 -554 0
-78 552 0
-78 -553 0
-78 -554 0
-86 -552 0
-86 553 0
-86 -554 0
-94 552 0
-94 553 0
-94 -554 0
-102 -552 0
-102 -553 0
-102 554 0
-110 552 0
-110 -553 0
-110 554 0
-118 -552 0
-118 553 0
-118 554 0
-126 552 0
-126 553 0
-126 554 0
-71 -555 0
-71 -556 0
-71 -557 0
-79 555 0
-79 -556 0
-79 -557 0
-87 -555 0
-87 556 0
-87 -557 0
-95 555 0
-95 556 0
-95 -557 0
-103 -555 0
-103 -556 0
-103 557 0
-111 555 0
-111 -556 0
-111 557 0
-119 -555 0
-119 556 0
-119 557 0
-127 555 0
-127 556 0
-127 557 0
-72 -558 0
-72 -559 0
-72 -560 0
-80 558 0
-80 -559 0
-80 -560 0
-88 -558 0
-88 559 0
-88 -560 0
-96 558 0
-96 559 0
-96 -560 0
-104 -558 0
-104 -559 0
-104 560 0
-112 558 0
-112 -559 0
-112 560 0
-120 -558 0
-120 559 0
-120 560 0
-128 558 0
-128 559 0
-128 560 0
-129 -561 0
-129 -562 0
-129 -563 0
-137 561 0
-137 -562 0
-137 -563 0
-145 -561 0
-145 562 0
-145 -563 0
-153 561 0
-153 562 0
-153 -563 0
-161 -561 0
-161 -562 0
-161 563 0
-169 561 0
-169 -562 0
-169 563 0
-177 -561 0
-177 562 0
-177 563 0
-185 561 0
-185 562 0
-185 563 0
-130 -564 0
-130 -565 0
-130 -566 0
-138 564 0
-138 -565 0
-138 -566 0
-146 -564 0
-146 565 0
-146 -566 0
-154 564 0
-154 565 0
-154 -566 0
-162 -564 0
-162 -565 0
-162 566 0
-170 564 0
-170 -565 0
-170 566 0
-178 -564 0
-178 565 0
-178 566 0
-186 564 0
-186 565 0
-186 566 0
-131 -567 0
-131 -568 0
-131 -569 0
-139 567 0
-139 -568 0
-139 -569 0
-147 -567 0
-147 568 0
-147 -569 0
-155 567 0
-155 568 0
-155 -569 0
-163 -567 0
-163 -568 0
-163 569 0
-171 567 0
-171 -568 0
-171 569 0
-179 -567 0
-179 568 0
-179 569 0
-187 567 0
-187 568 0
-187 569 0
-132 -570 0
-132 -571 0
-132 -572 0
-140 570 0
-140 -571 0
-140 -572 0
-148 -570 0
-148 571 0
-148 -572 0
-156 570 0
-156 571 0
-156 -572 0
-164 -570 0
-164 -571 0
-164 572 0
-172 570 0
-172 -571 0
-172 572 0
-180 -570 0
-180 571 0
-180 572 0
-188 570 0
-188 571 0
-188 572 0
-133 -573 0
-133 -574 0
-133 -575 0
-141 573 0
-141 -574 0
-141 -575 0
-149 -573 0
-149 574 0
-149 -575 0
-157 573 0
-157 574 0
-157 -575 0
-165 -573 0
-165 -574 0
-165 575 0
-173 573 0
-173 -574 0
-173 575 0
-181 -573 0
-181 574 0
-181 575 0
-189 573 0
-189 574 0
-189 575 0
-134 -576 0
-134 -577 0
-134 -578 0
-142 576 0
-142 -577 0
-142 -578 0
-150 -576 0
-150 577 0
-150 -578 0
-158 576 0
-158 577 0
-158 -578 0
-166 -576 0
-166 -577 0
-166 578 0
-174 576 0
-174 -577 0
-174 578 0
-182 -576 0
-182 577 0
-182 578 0
-190 576 0
-190 577 0
-190 578 0
-135 -579 0
-135 -580 0
-135 -581 0
-143 579 0
-143 -580 0
-143 -581 0
-151 -579 0
-151 580 0
-151 -581 0
-159 579 0
-159 580 0
-159 -581 0
-167 -579 0
-167 -580 0
-167 581 0
-175 579 0
-175 -580 0
-175 581 0
-183 -579 0
-183 580 0
-183 581 0
-191 579 0
-191 580 0
-191 581 0
-136 -582 0
-136 -583 0
-136 -584 0
-144 582 0
-144 -583 0
-144 -584 0
-152 -582 0
-152 583 0
-152 -584 0
-160 582 0
-160 583 0
-160 -584 0
-168 -582 0
-168 -583 0
-168 584 0
-176 582 0
-176 -583 0
-176 584 0
-184 -582 0
-184 583 0
-184 584 0
-192 582 0
-192 583 0
-192 584 0
-193 -585 0
-193 -586 0
-193 -587 0
-201 585 0
-201 -586 0
-201 -587 0
-209 -585 0
-209 586 0
-209 -587 0
-217 585 0
-217 586 0
-217 -587 0
-225 -585 0
-225 -586 0
-225 587 0
-233 585 0
-233 -586 0
-233 587 0
-241 -585 0
-241 586 0
-241 587 0
-249 585 0
-249 586 0
-249 587 0
-194 -588 0
-194 -589 0
-194 -590 0
-202 588 0
-202 -589 0
-202 -590 0
-210 -588 0
-210 589 0
-210 -590 0
-218 588 0
-218 589 0
-218 -590 0
-226 -588 0
-226 -589 0
-226 590 0
-234 588 0
-234 -589 0
-234 590 0
-242 -588 0
-242 589 0
-242 590 0
-250 588 0
-250 589 0
-250 590 0
-195 -591 0
-195 -592 0
-195 -593 0
-203 591 0
-203 -592 0
-203 -593 0
-211 -591 0
-211 592 0
-211 -593 0
-219 591 0
-219 592 0
-219 -593 0
-227 -591 0
-227 -592 0
-227 593 0
-235 591 0
-235 -592 0
-235 593 0
-243 -591 0
-243 592 0
-243 593 0
-251 591 0
-251 592 0
-251 593 0
-196 -594 0
-196 -595 0
-196 -596 0
-204 594 0
-204 -595 0
-204 -596 0
-212 -594 0
-212 595 0
-212 -596 0
-220 594 0
-220 595 0
-220 -596 0
-228 -594 0
-228 -595 0
-228 596 0
-236 594 0
-236 -595 0
-236 596 0
-244 -594 0
-244 595 0
-244 596 0
-252 594 0
-252 595 0
-252 596 0
-197 -597 0
-197 -598 0
-197 -599 0
-205 597 0
-205 -598 0
-205 -599 0
-213 -597 0
-213 598 0
-213 -599 0
-221 597 0
-221 598 0
-221 -599 0
-229 -597 0
-229 -598 0
-229 599 0
-237 597 0
-237 -598 0
-237 599 0
-245 -597 0
-245 598 0
-245 599 0
-253 597 0
-253 598 0
-253 599 0
-198 -600 0
-198 -601 0
-198 -602 0
-206 600 0
-206 -601 0
-206 -602 0
-214 -600 0
-214 601 0
-214 -602 0
-222 600 0
-222 601 0
-222 -602 0
-230 -600 0
-230 -601 0
-230 602 0
-238 600 0
-238 -601 0
-238 602 0
-246 -600 0
-246 601 0
-246 602 0
-254 600 0
-254 601 0
-254 602 0
-199 -603 0
-199 -604 0
-199 -605 0
-207 603 0
-207 -604 0
-207 -605 0
-215 -603 0
-215 604 0
-215 -605 0
-223 603 0
-223 604 0
-223 -605 0
-231 -603 0
-231 -604 0
-231 605 0
-239 603 0
-239 -604 0
-239 605 0
-247 -603 0
-247 604 0
-247 605 0
-255 603 0
-255 604 0
-255 605 0
-200 -606 0
-200 -607 0
-200 -608 0
-208 606 0
-208 -607 0
-208 -608 0
-216 -606 0
-216 607 0
-216 -608 0
-224 606 0
-224 607 0
-224 -608 0
-232 -606 0
-232 -607 0
-232 608 0
-240 606 0
-240 -607 0
-240 608 0
-248 -606 0
-248 607 0
-248 608 0
-256 606 0
-256 607 0
-256 608 0
-257 -609 0
-257 -610 0
-257 -611 0
-265 609 0
-265 -610 0
-265 -611 0
-273 -609 0
-273 610 0
-273 -611 0
-281 609 0
-281 610 0
-281 -611 0
-289 -609 0
-289 -610 0
-289 611 0
-297 609 0
-297 -610 0
-297 611 0
-305 -609 0
-305 610 0
-305 611 0
-313 609 0
-313 610 0
-313 611 0
-258 -612 0
-258 -613 0
-258 -614 0
-266 612 0
-266 -613 0
-266 -614 0
-274 -612 0
-274 613 0
-274 -614 0
-282 612 0
-282 613 0
-282 -614 0
-290 -612 0
-290 -613 0
-290 614 0
-298 612 0
-298 -613 0
-298 614 0
-306 -612 0
-306 613 0
-306 614 0
-314 612 0
-314 613 0
-314 614 0
-259 -615 0
-259 -616 0
-259 -617 0
-267 615 0
-267 -616 0
-267 -617 0
-275 -615 0
-275 616 0
-275 -617 0
-283 615 0
-283 616 0
-283 -617 0
-291 -615 0
-291 -616 0
-291 617 0
-299 615 0
-299 -616 0
-299 617 0
-307 -615 0
-307 616 0
-307 617 0
-315 615 0
-315 616 0
-315 617 0
-260 -618 0
-260 -619 0
-260 -620 0
-268 618 0
-268 -619 0
-268 -620 0
-276 -618 0
-276 619 0
-276 -620 0
-284 618 0
-284 619 0
-284 -620 0
-292 -618 0
-292 -619 0
-292 620 0
-300 618 0
-300 -619 0
-300 620 0
-308 -618 0
-308 619 0
-308 620 0
-316 618 0
-316 619 0
-316 620 0
-261 -621 0
-261 -622 0
-261 -623 0
-269 621 0
-269 -622 0
-269 -623 0
-277 -621 0
-277 622 0
-277 -623 0
-285 621 0
-285 622 0
-285 -623 0
-293 -621 0
-293 -622 0
-293 623 0
-301 621 0
-301 -622 0
-301 623 0
-309 -621 0
-309 622 0
-309 623 0
-317 621 0
-317 622 0
-317 623 0
-262 -624 0
-262 -625 0
-262 -626 0
-270 624 0
-270 -625 0
-270 -626 0
-278 -624 0
-278 625 0
-278 -626 0
-286 624 0
-286 625 0
-286 -626 0
-294 -624 0
-294 -625 0
-294 626 0
-302 624 0
-302 -625 0
-302 626 0
-310 -624 0
-310 625 0
-310 626 0
-318 624 0
-318 625 0
-318 626 0
-263 -627 0
-263 -628 0
-263 -629 0
-271 627 0
-271 -628 0
-271 -629 0
-279 -627 0
-279 628 0
-279 -629 0
-287 627 0
-287 628 0
-287 -629 0
-295 -627 0
-295 -628 0
-295 629 0
-303 627 0
-303 -628 0
-303 629 0
-311 -627 0
-311 628 0
-311 629 0
-319 627 0
-319 628 0
-319 629 0
-264 -630 0
-264 -631 0
-264 -632 0
-272 630 0
-272 -631 0
-272 -632 0
-280 -630 0
-280 631 0
-280 -632 0
-288 630 0
-288 631 0
-288 -632 0
-296 -630 0
-296 -631 0
-296 632 0
-304 630 0
-304 -631 0
-304 632 0
-312 -630 0
-312 631 0
-312 632 0
-320 630 0
-320 631 0
-320 632 0
-321 -633 0
-321 -634 0
-321 -635 0
-329 633 0
-329 -634 0
-329 -635 0
-337 -633 0
-337 634 0
-337 -635 0
-345 633 0
-345 634 0
-345 -635 0
-353 -633 0
-353 -634 0
-353 635 0
-361 633 0
-361 -634 0
-361 635 0
-369 -633 0
-369 634 0
-369 635 0
-377 633 0
-377 634 0
-377 635 0
-322 -636 0
-322 -637 0
-322 -638 0
-330 636 0
-330 -637 0
-330 -638 0
-338 -636 0
-338 637 0
-338 -638 0
-346 636 0
-346 637 0
-346 -638 0
-354 -636 0
-354 -637 0
-354 638 0
-362 636 0
-362 -637 0
-362 638 0
-370 -636 0
-370 637 0
-370 638 0
-378 636 0
-378 637 0
-378 638 0
-323 -639 0
-323 -640 0
-323 -641 0
-331 639 0
-331 -640 0
-331 -641 0
-339 -639 0
-339 640 0
-339 -641 0
-347 639 0
-347 640 0
-347 -641 0
-355 -639 0
-355 -640 0
-355 641 0
-363 639 0
-363 -640 0
-363 641 0
-371 -639 0
-371 640 0
-371 641 0
-379 639 0
-379 640 0
-379 641 0
-324 -642 0
-324 -643 0
-324 -644 0
-332 642 0
-332 -643 0
-332 -644 0
-340 -642 0
-340 643 0
-340 -644 0
-348 642 0
-348 643 0
-348 -644 0
-356 -642 0
-356 -643 0
-356 644 0
-364 642 0
-364 -643 0
-364 644 0
-372 -642 0
-372 643 0
-372 644 0
-380 642 0
-380 643 0
-380 644 0
-325 -645 0
-325 -646 0
-325 -647 0
-333 645 0
-333 -646 0
-333 -647 0
-341 -645 0
-341 646 0
-341 -647 0
-349 645 0
-349 646 0
-349 -647 0
-357 -645 0
-357 -646 0
-357 647 0
-365 645 0
-365 -646 0
-365 647 0
-373 -645 0
-373 646 0
-373 647 0
-381 645 0
-381 646 0
-381 647 0
-326 -648 0
-326 -649 0
-326 -650 0
-334 648 0
-334 -649 0
-334 -650 0
-342 -648 0
-342 649 0
-342 -650 0
-350 648 0
-350 649 0
-350 -650 0
-358 -648 0
-358 -649 0
-358 650 0
-366 648 0
-366 -649 0
-366 650 0
-374 -648 0
-374 649 0
-374 650 0
-382 648 0
-382 649 0
-382 650 0
-327 -651 0
-327 -652 0
-327 -653 0
-335 651 0
-335 -652 0
-335 -653 0
-343 -651 0
-343 652 0
-343 -653 0
-351 651 0
-351 652 0
-351 -653 0
-359 -651 0
-359 -652 0
-359 653 0
-367 651 0
-367 -652 0
-367 653 0
-375 -651 0
-375 652 0
-375 653 0
-383 651 0
-383 652 0
-383 653 0
-328 -654 0
-328 -655 0
-328 -656 0
-336 654 0
-336 -655 0
-336 -656 0
-344 -654 0
-344 655 0
-344 -656 0
-352 654 0
-352 655 0
-352 -656 0
-360 -654 0
-360 -655 0
-360 656 0
-368 654 0
-368 -655 0
-368 656 0
-376 -654 0
-376 655 0
-376 656 0
-384 654 0
-384 655 0
-384 656 0
-385 -657 0
-385 -658 0
-385 -659 0
-393 657 0
-393 -658 0
-393 -659 0
-401 -657 0
-401 658 0
-401 -659 0
-409 657 0
-409 658 0
-409 -659 0
-417 -657 0
-417 -658 0
-417 659 0
-425 657 0
-425 -658 0
-425 659 0
-433 -657 0
-433 658 0
-433 659 0
-441 657 0
-441 658 0
-441 659 0
-386 -660 0
-386 -661 0
-386 -662 0
-394 660 0
-394 -661 0
-394 -662 0
-402 -660 0
-402 661 0
-402 -662 0
-410 660 0
-410 661 0
-410 -662 0
-418 -660 0
-418 -661 0
-418 662 0
-426 660 0
-426 -661 0
-426 662 0
-434 -660 0
-434 661 0
-434 662 0
-442 660 0
-442 661 0
-442 662 0
-387 -663 0
-387 -664 0
-387 -665 0
-395 663 0
-395 -664 0
-395 -665 0
-403 -663 0
-403 664 0
-403 -665 0
-411 663 0
-411 664 0
-411 -665 0
-419 -663 0
-419 -664 0
-419 665 0
-427 663 0
-427 -664 0
-427 665 0
-435 -663 0
-435 664 0
-435 665 0
-443 663 0
-443 664 0
-443 665 0
-388 -666 0
-388 -667 0
-388 -668 0
-396 666 0
-396 -667 0
-396 -668 0
-404 -666 0
-404 667 0
-404 -668 0
-412 666 0
-412 667 0
-412 -668 0
-420 -666 0
-420 -667 0
-420 668 0
-428 666 0
-428 -667 0
-428 668 0
-436 -666 0
-436 667 0
-436 668 0
-444 666 0
-444 667 0
-444 668 0
-389 -669 0
-389 -670 0
-389 -671 0
-397 669 0
-397 -670 0
-397 -671 0
-405 -669 0
-405 670 0
-405 -671 0
-413 669 0
-413 670 0
-413 -671 0
-421 -669 0
-421 -670 0
-421 671 0
-429 669 0
-429 -670 0
-429 671 0
-437 -669 0
-437 670 0
-437 671 0
-445 669 0
-445 670 0
-445 671 0
-390 -672 0
-390 -673 0
-390 -674 0
-398 672 0
-398 -673 0
-398 -674 0
-406 -672 0
-406 673 0
-406 -674 0
-414 672 0
-414 673 0
-414 -674 0
-422 -672 0
-422 -673 0
-422 674 0
-430 672 0
-430 -673 0
-430 674 0
-438 -672 0
-438 673 0
-438 674 0
-446 672 0
-446 673 0
-446 674 0
-391 -675 0
-391 -676 0
-391 -677 0
-399 675 0
-399 -676 0
-399 -677 0
-407 -675 0
-407 676 0
-407 -677 0
-415 675 0
-415 676 0
-415 -677 0
-423 -675 0
-423 -676 0
-423 677 0
-431 675 0
-431 -676 0
-431 677 0
-439 -675 0
-439 676 0
-439 677 0
-447 675 0
-447 676 0
-447 677 0
-392 -678 0
-392 -679 0
-392 -680 0
-400 678 0
-400 -679 0
-400 -680 0
-408 -678 0
-408 679 0
-408 -680 0
-416 678 0
-416 679 0
-416 -680 0
-424 -678 0
-424 -679 0
-424 680 0
-432 678 0
-432 -679 0
-432 680 0
-440 -678 0
-440 679 0
-440 680 0
-448 678 0
-448 679 0
-448 680 0
-449 -681 0
-449 -682 0
-449 -683 0
-457 681 0
-457 -682 0
-457 -683 0
-465 -681 0
-465 682 0
-465 -683 0
-473 681 0
-473 682 0
-473 -683 0
-481 -681 0
-481 -682 0
-481 683 0
-489 681 0
-489 -682 0
-489 683 0
-497 -681 0
-497 682 0
-497 683 0
-505 681 0
-505 682 0
-505 683 0
-450 -684 0
-450 -685 0
-450 -686 0
-458 684 0
-458 -685 0
-458 -686 0
-466 -684 0
-466 685 0
-466 -686 0
-474 684 0
-474 685 0
-474 -686 0
-482 -684 0
-482 -685 0
-482 686 0
-490 684 0
-490 -685 0
-490 686 0
-498 -684 0
-498 685 0
-498 686 0
-506 684 0
-506 685 0
-506 686 0
-451 -687 0
-451 -688 0
-451 -689 0
-459 687 0
-459 -688 0
-459 -689 0
-467 -687 0
-467 688 0
-467 -689 0
-475 687 0
-475 688 0
-475 -689 0
-483 -687 0
-483 -688 0
-483 689 0
-491 687 0
-491 -688 0
-491 689 0
-499 -687 0
-499 688 0
-499 689 0
-507 687 0
-507 688 0
-507 689 0
-452 -690 0
-452 -691 0
-452 -692 0
-460 690 0
-460 -691 0
-460 -692 0
-468 -690 0
-468 691 0
-468 -692 0
-476 690 0
-476 691 0
-476 -692 0
-484 -690 0
-484 -691 0
-484 692 0
-492 690 0
-492 -691 0
-492 692 0
-500 -690 0
-500 691 0
-500 692 0
-508 690 0
-508 691 0
-508 692 0
-453 -693 0
-453 -694 0
-453 -695 0
-461 693 0
-461 -694 0
-461 -695 0
-469 -693 0
-469 694 0
-469 -695 0
-477 693 0
-477 694 0
-477 -695 0
-485 -693 0
-485 -694 0
-485 695 0
-493 693 0
-493 -694 0
-493 695 0
-501 -693 0
-501 694 0
-501 695 0
-509 693 0
-509 694 0
-509 695 0
-454 -696 0
-454 -697 0
-454 -698 0
-462 696 0
-462 -697 0
-462 -698 0
-470 -696 0
-470 697 0
-470 -698 0
-478 696 0
-478 697 0
-478 -698 0
-486 -696 0
-486 -697 0
-486 698 0
-494 696 0
-494 -697 0
-494 698 0
-502 -696 0
-502 697 0
-502 698 0
-510 696 0
-510 697 0
-510 698 0
-455 -699 0
-455 -700 0
-455 -701 0
-463 699 0
-463 -700 0
-463 -701 0
-471 -699 0
-471 700 0
-471 -701 0
-479 699 0
-479 700 0
-479 -701 0
-487 -699 0
-487 -700 0
-487 701 0
-495 699 0
-495 -700 0
-495 701 0
-503 -699 0
-503 700 0
-503 701 0
-511 699 0
-511 700 0
-511 701 0
-456 -702 0
-456 -703 0
-456 -704 0
-464 702 0
-464 -703 0
-464 -704 0
-472 -702 0
-472 703 0
-472 -704 0
-480 702 0
-480 703 0
-480 -704 0
-488 -702 0
-488 -703 0
-488 704 0
-496 702 0
-496 -703 0
-496 704 0
-504 -702 0
-504 703 0
-504 704 0
-512 702 0
-512 703 0
-512 704 0
-1 -705 0
-1 -706 0
-1 -707 0
-65 705 0
-65 -706 0
-65 -707 0
-129 -705 0
-129 706 0
-129 -707 0
-193 705 0
-193 706 0
-193 -707 0
-257 -705 0
-257 -706 0
-257 707 0
-321 705 0
-321 -706 0
-321 707 0
-385 -705 0
-385 706 0
-385 707 0
-449 705 0
-449 706 0
-449 707 0
-2 -708 0
-2 -709 0
-2 -710 0
-66 708 0
-66 -709 0
-66 -710 0
-130 -708 0
-130 709 0
-130 -710 0
-194 708 0
-194 709 0
-194 -710 0
-258 -708 0
-258 -709 0
-258 710 0
-322 708 0
-322 -709 0
-322 710 0
-386 -708 0
-386 709 0
-386 710 0
-450 708 0
-450 709 0
-450 710 0
-3 -711 0
-3 -712 0
-3 -713 0
-67 711 0
-67 -712 0
-67 -713 0
-131 -711 0
-131 712 0
-131 -713 0
-195 711 0
-195 712 0
-195 -713 0
-259 -711 0
-259 -712 0
-259 713 0
-323 711 0
-323 -712 0
-323 713 0
-387 -711 0
-387 712 0
-387 713 0
-451 711 0
-451 712 0
-451 713 0
-4 -714 0
-4 -715 0
-4 -716 0
-68 714 0
-68 -715 0
-68 -716 0
-132 -714 0
-132 715 0
-132 -716 0
-196 714 0
-196 715 0
-196 -716 0
-260 -714 0
-260 -715 0
-260 716 0
-324 714 0
-324 -715 0
-324 716 0
-388 -714 0
-388 715 0
-388 716 0
-452 714 0
-452 715 0
-452 716 0
-5 -717 0
-5 -718 0
-5 -719 0
-69 717 0
-69 -718 0
-69 -719 0
-133 -717 0
-133 718 0
-133 -719 0
-197 717 0
-197 718 0
-197 -719 0
-261 -717 0
-261 -718 0
-261 719 0
-325 717 0
-325 -718 0
-325 719 0
-389 -717 0
-389 718 0
-389 719 0
-453 717 0
-453 718 0
-453 719 0
-6 -720 0
-6 -721 0
-6 -722 0
-70 720 0
-70 -721 0
-70 -722 0
-134 -720 0
-134 721 0
-134 -722 0
-198 720 0
-198 721 0
-198 -722 0
-262 -720 0
-262 -721 0
-262 722 0
-326 720 0
-326 -721 0
-326 722 0
-390 -720 0
-390 721 0
-390 722 0
-454 720 0
-454 721 0
-454 722 0
-7 -723 0
-7 -724 0
-7 -725 0
-71 723 0
-71 -724 0
-71 -725 0
-135 -723 0
-135 724 0
-135 -725 0
-199 723 0
-199 724 0
-199 -725 0
-263 -723 0
-263 -724 0
-263 725 0
-327 723 0
-327 -724 0
-327 725 0
-391 -723 0
-391 724 0
-391 725 0
-455 723 0
-455 724 0
-455 725 0
-8 -726 0
-8 -727 0
-8 -728 0
-72 726 0
-72 -727 0
-72 -728 0
-136 -726 0
-136 727 0
-136 -728 0
-200 726 0
-200 727 0
-200 -728 0
-264 -726 0
-264 -727 0
-264 728 0
-328 726 0
-328 -727 0
-328 728 0
-392 -726 0
-392 727 0
-392 728 0
-456 726 0
-456 727 0
-456 728 0
-9 -729 0
-9 -730 0
-9 -731 0
-73 729 0
-73 -730 0
-73 -731 0
-137 -729 0
-137 730 0
-137 -731 0
-201 729 0
-201 730 0
-201 -731 0
-265 -729 0
-265 -730 0
-265 731 0
-329 729 0
-329 -730 0
-329 731 0
-393 -729 0
-393 730 0
-393 731 0
-457 729 0
-457 730 0
-457 731 0
-10 -732 0
-10 -733 0
-10 -734 0
-74 732 0
-74 -733 0
-74 -734 0
-138 -732 0
-138 733 0
-138 -734 0
-202 732 0
-202 733 0
-202 -734 0
-266 -732 0
-266 -733 0
-266 734 0
-330 732 0
-330 -733 0
-330 734 0
-394 -732 0
-394 733 0
-394 734 0
-458 732 0
-458 733 0
-458 734 0
-11 -735 0
-11 -736 0
-11 -737 0
-75 735 0
-75 -736 0
-75 -737 0
-139 -735 0
-139 736 0
-139 -737 0
-203 735 0
-203 736 0
-203 -737 0
-267 -735 0
-267 -736 0
-267 737 0
-331 735 0
-331 -736 0
-331 737 0
-395 -735 0
-395 736 0
-395 737 0
-459 735 0
-459 736 0
-459 737 0
-12 -738 0
-12 -739 0
-12 -740 0
-76 738 0
-76 -739 0
-76 -740 0
-140 -738 0
-140 739 0
-140 -740 0
-204 738 0
-204 739 0
-204 -740 0
-268 -738 0
-268 -739 0
-268 740 0
-332 738 0
-332 -739 0
-332 740 0
-396 -738 0
-396 739 0
-396 740 0
-460 738 0
-460 739 0
-460 740 0
-13 -741 0
-13 -742 0
-13 -743 0
-77 741 0
-77 -742 0
-77 -743 0
-141 -741 0
-141 742 0
-141 -743 0
-205 741 0
-205 742 0
-205 -743 0
-269 -741 0
-269 -742 0
-269 743 0
-333 741 0
-333 -742 0
-333 743 0
-397 -741 0
-397 742 0
-397 743 0
-461 741 0
-461 742 0
-461 743 0
-14 -744 0
-14 -745 0
-14 -746 0
-78 744 0
-78 -745 0
-78 -746 0
-142 -744 0
-142 745 0
-142 -746 0
-206 744 0
-206 745 0
-206 -746 0
-270 -744 0
-270 -745 0
-270 746 0
-334 744 0
-334 -745 0
-334 746 0
-398 -744 0
-398 745 0
-398 746 0
-462 744 0
-462 745 0
-462 746 0
-15 -747 0
-15 -748 0
-15 -749 0
-79 747 0
-79 -748 0
-79 -749 0
-143 -747 0
-143 748 0
-143 -749 0
-207 747 0
-207 748 0
-207 -749 0
-271 -747 0
-271 -748 0
-271 749 0
-335 747 0
-335 -748 0
-335 749 0
-399 -747 0
-399 748 0
-399 749 0
-463 747 0
-463 748 0
-463 749 0
-16 -750 0
-16 -751 0
-16 -752 0
-80 750 0
-80 -751 0
-80 -752 0
-144 -750 0
-144 751 0
-144 -752 0
-208 750 0
-208 751 0
-208 -752 0
-272 -750 0
-272 -751 0
-272 752 0
-336 750 0
-336 -751 0
-336 752 0
-400 -750 0
-400 751 0
-400 752 0
-464 750 0
-464 751 0
-464 752 0
-17 -753 0
-17 -754 0
-17 -755 0
-81 753 0
-81 -754 0
-81 -755 0
-145 -753 0
-145 754 0
-145 -755 0
-209 753 0
-209 754 0
-209 -755 0
-273 -753 0
-273 -754 0
-273 755 0
-337 753 0
-337 -754 0
-337 755 0
-401 -753 0
-401 754 0
-401 755 0
-465 753 0
-465 754 0
-465 755 0
-18 -756 0
-18 -757 0
-18 -758 0
-82 756 0
-82 -757 0
-82 -758 0
-146 -756 0
-146 757 0
-146 -758 0
-210 756 0
-210 757 0
-210 -758 0
-274 -756 0
-274 -757 0
-274 758 0
-338 756 0
-338 -757 0
-338 758 0
-402 -756 0
-402 757 0
-402 758 0
-466 756 0
-466 757 0
-466 758 0
-19 -759 0
-19 -760 0
-19 -761 0
-83 759 0
-83 -760 0
-83 -761 0
-147 -759 0
-147 760 0
-147 -761 0
-211 759 0
-211 760 0
-211 -761 0
-275 -759 0
-275 -760 0
-275 761 0
-339 759 0
-339 -760 0
-339 761 0
-403 -759 0
-403 760 0
-403 761 0
-467 759 0
-467 760 0
-467 761 0
-20 -762 0
-20 -763 0
-20 -764 0
-84 762 0
-84 -763 0
-84 -764 0
-148 -762 0
-148 763 0
-148 -764 0
-212 762 0
-212 763 0
-212 -764 0
-276 -762 0
-276 -763 0
-276 764 0
-340 762 0
-340 -763 0
-340 764 0
-404 -762 0
-404 763 0
-404 764 0
-468 762 0
-468 763 0
-468 764 0
-21 -765 0
-21 -766 0
-21 -767 0
-85 765 0
-85 -766 0
-85 -767 0
-149 -765 0
-149 766 0
-149 -767 0
-213 765 0
-213 766 0
-213 -767 0
-277 -765 0
-277 -766 0
-277 767 0
-341 765 0
-341 -766 0
-341 767 0
-405 -765 0
-405 766 0
-405 767 0
-469 765 0
-469 766 0
-469 767 0
-22 -768 0
-22 -769 0
-22 -770 0
-86 768 0
-86 -769 0
-86 -770 0
-150 -768 0
-150 769 0
-150 -770 0
-214 768 0
-214 769 0
-214 -770 0
-278 -768 0
-278 -769 0
-278 770 0
-342 768 0
-342 -769 0
-342 770 0
-406 -768 0
-406 769 0
-406 770 0
-470 768 0
-470 769 0
-470 770 0
-23 -771 0
-23 -772 0
-23 -773 0
-87 771 0
-87 -772 0
-87 -773 0
-151 -771 0
-151 772 0
-151 -773 0
-215 771 0
-215 772 0
-215 -773 0
-279 -771 0
-279 -772 0
-279 773 0
-343 771 0
-343 -772 0
-343 773 0
-407 -771 0
-407 772 0
-407 773 0
-471 771 0
-471 772 0
-471 773 0
-24 -774 0
-24 -775 0
-24 -776 0
-88 774 0
-88 -775 0
-88 -776 0
-152 -774 0
-152 775 0
-152 -776 0
-216 774 0
-216 775 0
-216 -776 0
-280 -774 0
-280 -775 0
-280 776 0
-344 774 0
-344 -775 0
-344 776 0
-408 -774 0
-408 775 0
-408 776 0
-472 774 0
-472 775 0
-472 776 0
-25 -777 0
-25 -778 0
-25 -779 0
-89 777 0
-89 -778 0
-89 -779 0
-153 -777 0
-153 778 0
-153 -779 0
-217 777 0
-217 778 0
-217 -779 0
-281 -777 0
-281 -778 0
-281 779 0
-345 777 0
-345 -778 0
-345 779 0
-409 -777 0
-409 778 0
-409 779 0
-473 777 0
-473 778 0
-473 779 0
-26 -780 0
-26 -781 0
-26 -782 0
-90 780 0
-90 -781 0
-90 -782 0
-154 -780 0
-154 781 0
-154 -782 0
-218 780 0
-218 781 0
-218 -782 0
-282 -780 0
-282 -781 0
-282 782 0
-346 780 0
-346 -781 0
-346 782 0
-410 -780 0
-410 781 0
-410 782 0
-474 780 0
-474 781 0
-474 782 0
-27 -783 0
-27 -784 0
-27 -785 0
-91 783 0
-91 -784 0
-91 -785 0
-155 -783 0
-155 784 0
-155 -785 0
-219 783 0
-219 784 0
-219 -785 0
-283 -783 0
-283 -784 0
-283 785 0
-347 783 0
-347 -784 0
-347 785 0
-411 -783 0
-411 784 0
-411 785 0
-475 783 0
-475 784 0
-475 785 0
-28 -786 0
-28 -787 0
-28 -788 0
-92 786 0
-92 -787 0
-92 -788 0
-156 -786 0
-156 787 0
-156 -788 0
-220 786 0
-220 787 0
-220 -788 0
-284 -786 0
-284 -787 0
-284 788 0
-348 786 0
-348 -787 0
-348 788 0
-412 -786 0
-412 787 0
-412 788 0
-476 786 0
-476 787 0
-476 788 0
-29 -789 0
-29 -790 0
-29 -791 0
-93 789 0
-93 -790 0
-93 -791 0
-157 -789 0
-157 790 0
-157 -791 0
-221 789 0
-221 790 0
-221 -791 0
-285 -789 0
-285 -790 0
-285 791 0
-349 789 0
-349 -790 0
-349 791 0
-413 -789 0
-413 790 0
-413 791 0
-477 789 0
-477 790 0
-477 791 0
-30 -792 0
-30 -793 0
-30 -794 0
-94 792 0
-94 -793 0
-94 -794 0
-158 -792 0
-158 793 0
-158 -794 0
-222 792 0
-222 793 0
-222 -794 0
-286 -792 0
-286 -793 0
-286 794 0
-350 792 0
-350 -793 0
-350 794 0
-414 -792 0
-414 793 0
-414 794 0
-478 792 0
-478 793 0
-478 794 0
-31 -795 0
-31 -796 0
-31 -797 0
-95 795 0
-95 -796 0
-95 -797 0
-159 -795 0
-159 796 0
-159 -797 0
-223 795 0
-223 796 0
-223 -797 0
-287 -795 0
-287 -796 0
-287 797 0
-351 795 0
-351 -796 0
-351 797 0
-415 -795 0
-415 796 0
-415 797 0
-479 795 0
-479 796 0
-479 797 0
-32 -798 0
-32 -799 0
-32 -800 0
-96 798 0
-96 -799 0
-96 -800 0
-160 -798 0
-160 799 0
-160 -800 0
-224 798 0
-224 799 0
-224 -800 0
-288 -798 0
-288 -799 0
-288 800 0
-352 798 0
-352 -799 0
-352 800 0
-416 -798 0
-416 799 0
-416 800 0
-480 798 0
-480 799 0
-480 800 0
-33 -801 0
-33 -802 0
-33 -803 0
-97 801 0
-97 -802 0
-97 -803 0
-161 -801 0
-161 802 0
-161 -803 0
-225 801 0
-225 802 0
-225 -803 0
-289 -801 0
-289 -802 0
-289 803 0
-353 801 0
-353 -802 0
-353 803 0
-417 -801 0
-417 802 0
-417 803 0
-481 801 0
-481 802 0
-481 803 0
-34 -804 0
-34 -805 0
-34 -806 0
-98 804 0
-98 -805 0
-98 -806 0
-162 -804 0
-162 805 0
-162 -806 0
-226 804 0
-226 805 0
-226 -806 0
-290 -804 0
-290 -805 0
-290 806 0
-354 804 0
-354 -805 0
-354 806 0
-418 -804 0
-418 805 0
-418 806 0
-482 804 0
-482 805 0
-482 806 0
-35 -807 0
-35 -808 0
-35 -809 0
-99 807 0
-99 -808 0
-99 -809 0
-163 -807 0
-163 808 0
-163 -809 0
-227 807 0
-227 808 0
-227 -809 0
-291 -807 0
-291 -808 0
-291 809 0
-355 807 0
-355 -808 0
-355 809 0
-419 -807 0
-419 808 0
-419 809 0
-483 807 0
-483 808 0
-483 809 0
-36 -810 0
-36 -811 0
-36 -812 0
-100 810 0
-100 -811 0
-100 -812 0
-164 -810 0
-164 811 0
-164 -812 0
-228 810 0
-228 811 0
-228 -812 0
-292 -810 0
-292 -811 0
-292 812 0
-356 810 0
-356 -811 0
-356 812 0
-420 -810 0
-420 811 0
-420 812 0
-484 810 0
-484 811 0
-484 812 0
-37 -813 0
-37 -814 0
-37 -815 0
-101 813 0
-101 -814 0
-101 -815 0
-165 -813 0
-165 814 0
-165 -815 0
-229 813 0
-229 814 0
-229 -815 0
-293 -813 0
-293 -814 0
-293 815 0
-357 813 0
-357 -814 0
-357 815 0
-421 -813 0
-421 814 0
-421 815 0
-485 813 0
-485 814 0
-485 815 0
-38 -816 0
-38 -817 0
-38 -818 0
-102 816 0
-102 -817 0
-102 -818 0
-166 -816 0
-166 817 0
-166 -818 0
-230 816 0
-230 817 0
-230 -818 0
-294 -816 0
-294 -817 0
-294 818 0
-358 816 0
-358 -817 0
-358 818 0
-422 -816 0
-422 817 0
-422 818 0
-486 816 0
-486 817 0
-486 818 0
-39 -819 0
-39 -820 0
-39 -821 0
-103 819 0
-103 -820 0
-103 -821 0
-167 -819 0
-167 820 0
-167 -821 0
-231 819 0
-231 820 0
-231 -821 0
-295 -819 0
-295 -820 0
-295 821 0
-359 819 0
-359 -820 0
-359 821 0
-423 -819 0
-423 820 0
-423 821 0
-487 819 0
-487 820 0
-487 821 0
-40 -822 0
-40 -823 0
-40 -824 0
-104 822 0
-104 -823 0
-104 -824 0
-168 -822 0
-168 823 0
-168 -824 0
-232 822 0
-232 823 0
-232 -824 0
-296 -822 0
-296 -823 0
-296 824 0
-360 822 0
-360 -823 0
-360 824 0
-424 -822 0
-424 823 0
-424 824 0
-488 822 0
-488 823 0
-488 824 0
-41 -825 0
-41 -826 0
-41 -827 0
-105 825 0
-105 -826 0
-105 -827 0
-169 -825 0
-169 826 0
-169 -827 0
-233 825 0
-233 826 0
-233 -827 0
-297 -825 0
-297 -826 0
-297 827 0
-361 825 0
-361 -826 0
-361 827 0
-425 -825 0
-425 826 0
-425 827 0
-489 825 0
-489 826 0
-489 827 0
-42 -828 0
-42 -829 0
-42 -830 0
-106 828 0
-106 -829 0
-106 -830 0
-170 -828 0
-170 829 0
-170 -830 0
-234 828 0
-234 829 0
-234 -830 0
-298 -828 0
-298 -829 0
-298 830 0
-362 828 0
-362 -829 0
-362 830 0
-426 -828 0
-426 829 0
-426 830 0
-490 828 0
-490 829 0
-490 830 0
-43 -831 0
-43 -832 0
-43 -833 0
-107 831 0
-107 -832 0
-107 -833 0
-171 -831 0
-171 832 0
-171 -833 0
-235 831 0
-235 832 0
-235 -833 0
-299 -831 0
-299 -832 0
-299 833 0
-363 831 0
-363 -832 0
-363 833 0
-427 -831 0
-427 832 0
-427 833 0
-491 831 0
-491 832 0
-491 833 0
-44 -834 0
-44 -835 0
-44 -836 0
-108 834 0
-108 -835 0
-108 -836 0
-172 -834 0
-172 835 0
-172 -836 0
-236 834 0
-236 835 0
-236 -836 0
-300 -834 0
-300 -835 0
-300 836 0
-364 834 0
-364 -835 0
-364 836 0
-428 -834 0
-428 835 0
-428 836 0
-492 834 0
-492 835 0
-492 836 0
-45 -837 0
-45 -838 0
-45 -839 0
-109 837 0
-109 -838 0
-109 -839 0
-173 -837 0
-173 838 0
-173 -839 0
-237 837 0
-237 838 0
-237 -839 0
-301 -837 0
-301 -838 0
-301 839 0
-365 837 0
-365 -838 0
-365 839 0
-429 -837 0
-429 838 0
-429 839 0
-493 837 0
-493 838 0
-493 839 0
-46 -840 0
-46 -841 0
-46 -842 0
-110 840 0
-110 -841 0
-110 -842 0
-174 -840 0
-174 841 0
-174 -842 0
-238 840 0
-238 841 0
-238 -842 0
-302 -840 0
-302 -841 0
-302 842 0
-366 840 0
-366 -841 0
-366 842 0
-430 -840 0
-430 841 0
-430 842 0
-494 840 0
-494 841 0
-494 842 0
-47 -843 0
-47 -844 0
-47 -845 0
-111 843 0
-111 -844 0
-111 -845 0
-175 -843 0
-175 844 0
-175 -845 0
-239 843 0
-239 844 0
-239 -845 0
-303 -843 0
-303 -844 0
-303 845 0
-367 843 0
-367 -844 0
-367 845 0
-431 -843 0
-431 844 0
-431 845 0
-495 843 0
-495 844 0
-495 845 0
-48 -846 0
-48 -847 0
-48 -848 0
-112 846 0
-112 -847 0
-112 -848 0
-176 -846 0
-176 847 0
-176 -848 0
-240 846 0
-240 847 0
-240 -848 0
-304 -846 0
-304 -847 0
-304 848 0
-368 846 0
-368 -847 0
-368 848 0
-432 -846 0
-432 847 0
-432 848 0
-496 846 0
-496 847 0
-496 848 0
-49 -849 0
-49 -850 0
-49 -851 0
-113 849 0
-113 -850 0
-113 -851 0
-177 -849 0
-177 850 0
-177 -851 0
-241 849 0
-241 850 0
-241 -851 0
-305 -849 0
-305 -850 0
-305 851 0
-369 849 0
-369 -850 0
-369 851 0
-433 -849 0
-433 850 0
-433 851 0
-497 849 0
-497 850 0
-497 851 0
-50 -852 0
-50 -853 0
-50 -854 0
-114 852 0
-114 -853 0
-114 -854 0
-178 -852 0
-178 853 0
-178 -854 0
-242 852 0
-242 853 0
-242 -854 0
-306 -852 0
-306 -853 0
-306 854 0
-370 852 0
-370 -853 0
-370 854 0
-434 -852 0
-434 853 0
-434 854 0
-498 852 0
-498 853 0
-498 854 0
-51 -855 0
-51 -856 0
-51 -857 0
-115 855 0
-115 -856 0
-115 -857 0
-179 -855 0
-179 856 0
-179 -857 0
-243 855 0
-243 856 0
-243 -857 0
-307 -855 0
-307 -856 0
-307 857 0
-371 855 0
-371 -856 0
-371 857 0
-435 -855 0
-435 856 0
-435 857 0
-499 855 0
-499 856 0
-499 857 0
-52 -858 0
-52 -859 0
-52 -860 0
-116 858 0
-116 -859 0
-116 -860 0
-180 -858 0
-180 859 0
-180 -860 0
-244 858 0
-244 859 0
-244 -860 0
-308 -858 0
-308 -859 0
-308 860 0
-372 858 0
-372 -859 0
-372 860 0
-436 -858 0
-436 859 0
-436 860 0
-500 858 0
-500 859 0
-500 860 0
-53 -861 0
-53 -862 0
-53 -863 0
-117 861 0
-117 -862 0
-117 -863 0
-181 -861 0
-181 862 0
-181 -863 0
-245 861 0
-245 862 0
-245 -863 0
-309 -861 0
-309 -862 0
-309 863 0
-373 861 0
-373 -862 0
-373 863 0
-437 -861 0
-437 862 0
-437 863 0
-501 861 0
-501 862 0
-501 863 0
-54 -864 0
-54 -865 0
-54 -866 0
-118 864 0
-118 -865 0
-118 -866 0
-182 -864 0
-182 865 0
-182 -866 0
-246 864 0
-246 865 0
-246 -866 0
-310 -864 0
-310 -865 0
-310 866 0
-374 864 0
-374 -865 0
-374 866 0
-438 -864 0
-438 865 0
-438 866 0
-502 864 0
-502 865 0
-502 866 0
-55 -867 0
-55 -868 0
-55 -869 0
-119 867 0
-119 -868 0
-119 -869 0
-183 -867 0
-183 868 0
-183 -869 0
-247 867 0
-247 868 0
-247 -869 0
-311 -867 0
-311 -868 0
-311 869 0
-375 867 0
-375 -868 0
-375 869 0
-439 -867 0
-439 868 0
-439 869 0
-503 867 0
-503 868 0
-503 869 0
-56 -870 0
-56 -871 0
-56 -872 0
-120 870 0
-120 -871 0
-120 -872 0
-184 -870 0
-184 871 0
-184 -872 0
-248 870 0
-248 871 0
-248 -872 0
-312 -870 0
-312 -871 0
-312 872 0
-376 870 0
-376 -871 0
-376 872 0
-440 -870 0
-440 871 0
-440 872 0
-504 870 0
-504 871 0
-504 872 0
-57 -873 0
-57 -874 0
-57 -875 0
-121 873 0
-121 -874 0
-121 -875 0
-185 -873 0
-185 874 0
-185 -875 0
-249 873 0
-249 874 0
-249 -875 0
-313 -873 0
-313 -874 0
-313 875 0
-377 873 0
-377 -874 0
-377 875 0
-441 -873 0
-441 874 0
-441 875 0
-505 873 0
-505 874 0
-505 875 0
-58 -876 0
-58 -877 0
-58 -878 0
-122 876 0
-122 -877 0
-122 -878 0
-186 -876 0
-186 877 0
-186 -878 0
-250 876 0
-250 877 0
-250 -878 0
-314 -876 0
-314 -877 0
-314 878 0
-378 876 0
-378 -877 0
-378 878 0
-442 -876 0
-442 877 0
-442 878 0
-506 876 0
-506 877 0
-506 878 0
-59 -879 0
-59 -880 0
-59 -881 0
-123 879 0
-123 -880 0
-123 -881 0
-187 -879 0
-187 880 0
-187 -881 0
-251 879 0
-251 880 0
-251 -881 0
-315 -879 0
-315 -880 0
-315 881 0
-379 879 0
-379 -880 0
-379 881 0
-443 -879 0
-443 880 0
-443 881 0
-507 879 0
-507 880 0
-507 881 0
-60 -882 0
-60 -883 0
-60 -884 0
-124 882 0
-124 -883 0
-124 -884 0
-188 -882 0
-188 883 0
-188 -884 0
-252 882 0
-252 883 0
-252 -884 0
-316 -882 0
-316 -883 0
-316 884 0
-380 882 0
-380 -883 0
-380 884 0
-444 -882 0
-444 883 0
-444 884 0
-508 882 0
-508 883 0
-508 884 0
-61 -885 0
-61 -886 0
-61 -887 0
-125 885 0
-125 -886 0
-125 -887 0
-189 -885 0
-189 886 0
-189 -887 0
-253 885 0
-253 886 0
-253 -887 0
-317 -885 0
-317 -886 0
-317 887 0
-381 885 0
-381 -886 0
-381 887 0
-445 -885 0
-445 886 0
-445 887 0
-509 885 0
-509 886 0
-509 887 0
-62 -888 0
-62 -889 0
-62 -890 0
-126 888 0
-126 -889 0
-126 -890 0
-190 -888 0
-190 889 0
-190 -890 0
-254 888 0
-254 889 0
-254 -890 0
-318 -888 0
-318 -889 0
-318 890 0
-382 888 0
-382 -889 0
-382 890 0
-446 -888 0
-446 889 0
-446 890 0
-510 888 0
-510 889 0
-510 890 0
-63 -891 0
-63 -892 0
-63 -893 0
-127 891 0
-127 -892 0
-127 -893 0
-191 -891 0
-191 892 0
-191 -893 0
-255 891 0
-255 892 0
-255 -893 0
-319 -891 0
-319 -892 0
-319 893 0
-383 891 0
-383 -892 0
-383 893 0
-447 -891 0
-447 892 0
-447 893 0
-511 891 0
-511 892 0
-511 893 0
-64 -894 0
-64 -895 0
-64 -896 0
-128 894 0
-128 -895 0
-128 -896 0
-192 -894 0
-192 895 0
-192 -896 0
-256 894 0
-256 895 0
-256 -896 0
-320 -894 0
-320 -895 0
-320 896 0
-384 894 0
-384 -895 0
-384 896 0
-448 -894 0
-448 895 0
-448 896 0
-512 894 0
-512 895 0
-512 896 0
1 2 3 4 5 6 7 8 0
9 10 11 12 13 14 15 16 0
17 18 19 20 21 22 23 24 0
25 26 27 28 29 30 31 32 0
33 34 35 36 37 38 39 40 0
41 42 43 44 45 46 47 48 0
49 50 51 52 53 54 55 56 0
57 58 59 60 61 62 63 64 0
65 66 67 68 69 70 71 72 0
73 74 75 76 77 78 79 80 0
81 82 83 84 85 86 87 88 0
89 90 91 92 93 94 95 96 0
97 98 99 100 101 102 103 104 0
105 106 107 108 109 110 111 112 0
113 114 115 116 117 118 119 120 0
121 122 123 124 125 126 127 128 0
129 130 131 132 133 134 135 136 0
137 138 139 140 141 142 143 144 0
145 146 147 148 149 150 151 152 0
153 154 155 156 157 158 159 160 0
161 162 163 164 165 166 167 168 0
169 170 171 172 173 174 175 176 0
177 178 179 180 181 182 183 184 0
185 186 187 188 189 190 191 192 0
193 194 195 196 197 198 199 200 0
201 202 203 204 205 206 207 208 0
209 210 211 212 213 214 215 216 0
217 218 219 220 221 222 223 224 0
225 226 227 228 229 230 231 232 0
233 234 235 236 237 238 239 240 0
241 242 243 244 245 246 247 248 0
249 250 251 252 253 254 255 256 0
257 258 259 260 261 262 263 264 0
265 266 267 268 269 270 271 272 0
273 274 275 276 277 278 279 280 0
281 282 283 284 285 286 287 288 0
289 290 291 292 293 294 295 296 0
297 298 299 300 301 302 303 304 0
305 306 307 308 309 310 311 312 0
313 314 315 316 317 318 319 320 0
321 322 323 324 325 326 327 328 0
329 330 331 332 333 334 335 336 0
337 338 339 340 341 342 343 344 0
345 346 347 348 349 350 351 352 0
353 354 355 356 357 358 359 360 0
361 362 363 364 365 366 367 368 0
369 370 371 372 373 374 375 376 0
377 378 379 380 381 382 383 384 0
385 386 387 388 389 390 391 392 0
393 394 395 396 397 398 399 400 0
401 402 403 404 405 406 407 408 0
409 410 411 412 413 414 415 416 0
417 418 419 420 421 422 423 424 0
425 426 427 428 429 430 431 432 0
433 434 435 436 437 438 439 440 0
441 442 443 444 445 446 447 448 0
449 450 451 452 453 454 455 456 0
457 458 459 460 461 462 463 464 0
465 466 467 468 469 470 471 472 0
473 474 475 476 477 478 479 480 0
481 482 483 484 485 486 487 488 0
489 490 491 492 493 494 495 496 0
497 498 499 500 501 502 503 504 0
505 506 507 508 509 510 511 512 0
-1 -513 0
-1 -514 0
-1 -515 0
-9 513 0
-9 -514 0
-9 -515 0
-17 -513 0
-17 514 0
-17 -515 0
-25 513 0
-25 514 0
-25 -515 0
-33 -513 0
-33 -514 0
-33 515 0
-41 513 0
-41 -514 0
-41 515 0
-49 -513 0
-49 514 0
-49 515 0
-57 513 0
-57 514 0
-57 515 0
-2 -516 0
-2 -517 0
-2 -518 0
-10 516 0
-10 -517 0
-10 -518 0
-18 -516 0
-18 517 0
-18 -518 0
-26 516 0
-26 517 0
-26 -518 0
-34 -516 0
-34 -517 0
-34 518 0
-42 516 0
-42 -517 0
-42 518 0
-50 -516 0
-50 517 0
-50 518 0
-58 516 0
-58 517 0
-58 518 0
-3 -519 0
-3 -520 0
-3 -521 0
-11 519 0
-11 -520 0
-11 -521 0
-19 -519 0
-19 520 0
-19 -521 0
-27 519 0
-27 520 0
-27 -521 0
-35 -519 0
-35 -520 0
-35 521 0
-43 519 0
-43 -520 0
-43 521 0
-51 -519 0
-51 520 0
-51 521 0
-59 519 0
-59 520 0
-59 521 0
-4 -522 0
-4 -523 0
-4 -524 0
-12 522 0
-12 -523 0
-12 -524 0
-20 -522 0
-20 523 0
-20 -524 0
-28 522 0
-28 523 0
-28 -524 0
-36 -522 0
-36 -523 0
-36 524 0
-44 522 0
-44 -523 0
-44 524 0
-52 -522 0
-52 523 0
-52 524 0
-60 522 0
-60 523 0
-60 524 0
-5 -525 0
-5 -526 0
-5 -527 0
-13 525 0
-13 -526 0
-13 -527 0
-21 -525 0
-21 526 0
-21 -527 0
-29 525 0
-29 526 0
-29 -527 0
-37 -525 0
-37 -526 0
-37 527 0
-45 525 0
-45 -526 0
-45 527 0
-53 -525 0
-53 526 0
-53 527 0
-61 525 0
-61 526 0
-61 527 0
-6 -528 0
-6 -529 0
-6 -530 0
-14 528 0
-14 -529 0
-14 -530 0
-22 -528 0
-22 529 0
-22 -530 0
-30 528 0
-30 529 0
-30 -530 0
-38 -528 0
-38 -529 0
-38 530 0
-46 528 0
-46 -529 0
-46 530 0
-54 -528 0
-54 529 0
-54 530 0
-62 528 0
-62 529 0
-62 530 0
-7 -531 0
-7 -532 0
-7 -533 0
-15 531 0
-15 -532 0
-15 -533 0
-23 -531 0
-23 532 0
-23 -533 0
-31 531 0
-31 532 0
-31 -533 0
-39 -531 0
-39 -532 0
-39 533 0
-47 531 0
-47 -532 0
-47 533 0
-55 -531 0
-55 532 0
-55 533 0
-63 531 0
-63 532 0
-63 533 0
-8 -534 0
-8 -535 0
-8 -536 0
-16 534 0
-16 -535 0
-16 -536 0
-24 -534 0
-24 535 0
-24 -536 0
-32 534 0
-32 535 0
-32 -536 0
-40 -534 0
-40 -535 0
-40 536 0
-48 534 0
-48 -535 0
-48 536 0
-56 -534 0
-56 535 0
-56 536 0
-64 534 0
-64 535 0
-64 536 0
-65 -537 0
-65 -538 0
-65 -539 0
-73 537 0
-73 -538 0
-73 -539 0
-81 -537 0
-81 538 0
-81 -539 0
-89 537 0
-89 538 0
-89 -539 0
-97 -537 0
-97 -538 0
-97 539 0
-105 537 0
-105 -538 0
-105 539 0
-113 -537 0
-113 538 0
-113 539 0
-121 537 0
-121 538 0
-121 539 0
-66 -540 0
-66 -541 0
-66 -542 0
-74 540 0
-74 -541 0
-74 -542 0
-82 -540 0
-82 541 0
-82 -542 0
-90 540 0
-90 541 0
-90 -542 0
-98 -540 0
-98 -541 0
-98 542 0
-106 540 0
-106 -541 0
-106 542 0
-114 -540 0
-114 541 0
-114 542 0
-122 540 0
-122 541 0
-122 542 0
-67 -543 0
-67 -544 0
-67 -545 0
-75 543 0
-75 -544 0
-75 -545 0
-83 -543 0
-83 544 0
-83 -545 0
-91 543 0
-91 544 0
-91 -545 0
-99 -543 0
-99 -544 0
-99 545 0
-107 543 0
-107 -544 0
-107 545 0
-115 -543 0
-115 544 0
-115 545 0
-123 543 0
-123 544 0
-123 545 0
-68 -546 0
-68 -547 0
-68 -548 0
-76 546 0
-76 -547 0
-76 -548 0
-84 -546 0
-84 547 0
-84 -548 0
-92 546 0
-92 547 0
-92 -548 0
-100 -546 0
-100 -547 0
-100 548 0
-108 546 0
-108 -547 0
-108 548 0
-116 -546 0
-116 547 0
-116 548 0
-124 546 0
-124 547 0
-124 548 0
-69 -549 0
-69 -550 0
-69 -551 0
-77 549 0
-77 -550 0
